c Random generated cnf formula, satisfiable: false
p cnf 10 50
-4 8 3 0
-1 -4 -10 0
3 1 9 0
-1 7 -3 0
-1 9 5 0
-1 -6 2 0
2 4 3 0
-8 2 -9 0
10 -8 5 0
7 10 3 0
-2 -7 1 0
-10 -8 9 0
-1 -3 2 0
-6 9 4 0
7 6 10 0
-3 8 7 0
7 3 -6 0
10 -6 -4 0
-8 9 -4 0
10 9 1 0
9 -3 10 0
-7 3 5 0
6 4 9 0
-5 -1 -3 0
3 1 5 0
-6 -8 9 0
9 10 4 0
-6 1 2 0
8 -3 10 0
3 -4 6 0
-10 8 7 0
1 -9 -2 0
-4 -6 -2 0
-7 -1 -8 0
4 -2 10 0
2 7 -5 0
-10 -7 -4 0
6 -10 -8 0
-9 -1 2 0
6 -5 1 0
-8 -10 9 0
-6 -7 3 0
7 1 -3 0
4 3 7 0
-5 -7 -8 0
-5 8 7 0
3 2 -6 0
-6 3 -7 0
-10 4 8 0
1 2 -9 0
